
Gurobi 11.0.1 (win64) logging started Tue May 14 15:49:52 2024

Set parameter LogFile to value "output/solver_log1.txt"
Gurobi Optimizer version 11.0.1 build v11.0.1rc0 (win64 - Windows 11.0 (22631.2))

CPU model: 11th Gen Intel(R) Core(TM) i7-1165G7 @ 2.80GHz, instruction set [SSE2|AVX|AVX2|AVX512]
Thread count: 4 physical cores, 8 logical processors, using up to 8 threads

Optimize a model with 2922 rows, 748 columns and 55574 nonzeros
Model fingerprint: 0x295239e4
Variable types: 248 continuous, 500 integer (500 binary)
Coefficient statistics:
  Matrix range     [4e-01, 1e+05]
  Objective range  [1e+00, 1e+02]
  Bounds range     [1e+00, 1e+00]
  RHS range        [1e-02, 1e+05]

User MIP start produced solution with objective 39575.4 (0.01s)
User MIP start produced solution with objective 39575.4 (0.01s)
Loaded user MIP start with objective 39575.4

Presolve removed 389 rows and 268 columns
Presolve time: 0.05s
Presolved: 2533 rows, 480 columns, 50180 nonzeros
Variable types: 236 continuous, 244 integer (240 binary)

Root relaxation: objective 4.916075e+04, 897 iterations, 0.05 seconds (0.10 work units)

    Nodes    |    Current Node    |     Objective Bounds      |     Work
 Expl Unexpl |  Obj  Depth IntInf | Incumbent    BestBd   Gap | It/Node Time

     0     0 49160.7488    0   19 39575.3530 49160.7488  24.2%     -    0s
     0     0 49106.9785    0   48 39575.3530 49106.9785  24.1%     -    0s
     0     0 48311.8844    0   45 39575.3530 48311.8844  22.1%     -    0s
     0     0 46799.1297    0   66 39575.3530 46799.1297  18.3%     -    0s
     0     0 46799.1297    0   56 39575.3530 46799.1297  18.3%     -    0s
     0     0 46473.0059    0   54 39575.3530 46473.0059  17.4%     -    0s
     0     0 46218.3963    0   50 39575.3530 46218.3963  16.8%     -    0s
     0     0 46218.3963    0   51 39575.3530 46218.3963  16.8%     -    0s
     0     0 46115.9993    0   55 39575.3530 46115.9993  16.5%     -    1s
     0     0 46044.3474    0   57 39575.3530 46044.3474  16.3%     -    1s
     0     0 45962.9785    0   45 39575.3530 45962.9785  16.1%     -    1s
     0     0 45703.1967    0   45 39575.3530 45703.1967  15.5%     -    1s
     0     0 45703.1967    0   45 39575.3530 45703.1967  15.5%     -    1s
     0     0 45611.7361    0   63 39575.3530 45611.7361  15.3%     -    1s
     0     0 45611.7361    0   61 39575.3530 45611.7361  15.3%     -    1s
     0     2 45611.7361    0   55 39575.3530 45611.7361  15.3%     -    1s
H  320   145                    39577.069779 43552.2110  10.0%   198    4s
   555   366 39595.1651   12    9 39577.0698 39595.9179  0.05%   138    5s
*  571   344              28    39594.434273 39595.9179  0.00%   135    5s

Cutting planes:
  Implied bound: 3
  MIR: 36
  RLT: 2

Explored 1195 nodes (91771 simplex iterations) in 5.28 seconds (11.60 work units)
Thread count was 8 (of 8 available processors)

Solution count 4: 39594.4 39594.4 39577.1 39575.4 

Optimal solution found (tolerance 1.00e-04)
Best objective 3.959443427278e+04, best bound 3.959591791255e+04, gap 0.0037%
